70
1 0 30
2 0 25
2 1 27
3 0 26
3 1 40
3 2 36
4 0 28
4 1 18
4 2 37
4 3 5
5 0 22
5 1 1
5 2 20
5 3 12
5 4 16
6 0 1
6 1 4
6 2 23
6 3 8
6 4 31
6 5 27
7 0 40
7 1 28
7 2 8
7 3 26
7 4 35
7 5 20
7 6 19
8 0 38
8 1 5
8 2 30
8 3 17
8 4 5
8 5 22
8 6 32
8 7 3
9 0 34
9 1 40
9 2 39
9 3 39
9 4 7
9 5 9
9 6 35
9 7 7
9 8 7
10 0 28
10 1 11
10 2 40
10 3 35
10 4 17
10 5 26
10 6 30
10 7 36
10 8 4
10 9 9
11 0 14
11 1 31
11 2 30
11 3 27
11 4 17
11 5 5
11 6 17
11 7 36
11 8 5
11 9 7
11 10 19
12 0 3
12 1 40
12 2 11
12 3 27
12 4 3
12 5 26
12 6 9
12 7 8
12 8 9
12 9 28
12 10 28
12 11 5
13 0 28
13 1 27
13 2 12
13 3 3
13 4 3
13 5 25
13 6 21
13 7 40
13 8 35
13 9 27
13 10 5
13 11 15
13 12 4
14 0 32
14 1 21
14 2 11
14 3 8
14 4 17
14 5 5
14 6 8
14 7 36
14 8 30
14 9 28
14 10 11
14 11 22
14 12 36
14 13 23
15 0 25
15 1 18
15 2 14
15 3 28
15 4 31
15 5 4
15 6 1
15 7 6
15 8 15
15 9 40
15 10 7
15 11 33
15 12 33
15 13 36
15 14 1
16 0 39
16 1 14
16 2 22
16 3 21
16 4 4
16 5 33
16 6 37
16 7 32
16 8 9
16 9 1
16 10 5
16 11 21
16 12 31
16 13 26
16 14 4
16 15 21
17 0 10
17 1 32
17 2 21
17 3 2
17 4 33
17 5 38
17 6 12
17 7 13
17 8 7
17 9 33
17 10 34
17 11 36
17 12 9
17 13 10
17 14 11
17 15 22
17 16 5
18 0 8
18 1 19
18 2 18
18 3 34
18 4 22
18 5 8
18 6 29
18 7 31
18 8 16
18 9 1
18 10 32
18 11 6
18 12 23
18 13 23
18 14 7
18 15 30
18 16 2
18 17 23
19 0 18
19 1 35
19 2 18
19 3 21
19 4 23
19 5 4
19 6 10
19 7 35
19 8 7
19 9 7
19 10 9
19 11 16
19 12 33
19 13 27
19 14 30
19 15 34
19 16 31
19 17 29
19 18 29
20 0 40
20 1 40
20 2 35
20 3 1
20 4 3
20 5 33
20 6 21
20 7 5
20 8 33
20 9 33
20 10 35
20 11 12
20 12 27
20 13 7
20 14 22
20 15 40
20 16 7
20 17 35
20 18 16
20 19 39
21 0 3
21 1 36
21 2 1
21 3 5
21 4 10
21 5 19
21 6 6
21 7 20
21 8 3
21 9 21
21 10 27
21 11 27
21 12 36
21 13 15
21 14 17
21 15 21
21 16 38
21 17 36
21 18 18
21 19 6
21 20 22
22 0 2
22 1 28
22 2 11
22 3 32
22 4 17
22 5 17
22 6 28
22 7 32
22 8 33
22 9 15
22 10 16
22 11 2
22 12 28
22 13 1
22 14 13
22 15 4
22 16 17
22 17 6
22 18 5
22 19 38
22 20 33
22 21 16
23 0 13
23 1 6
23 2 28
23 3 38
23 4 27
23 5 16
23 6 36
23 7 11
23 8 25
23 9 14
23 10 22
23 11 18
23 12 4
23 13 30
23 14 7
23 15 33
23 16 15
23 17 39
23 18 38
23 19 33
23 20 14
23 21 37
23 22 19
24 0 4
24 1 20
24 2 19
24 3 18
24 4 18
24 5 30
24 6 21
24 7 17
24 8 14
24 9 20
24 10 17
24 11 21
24 12 26
24 13 36
24 14 7
24 15 24
24 16 2
24 17 2
24 18 19
24 19 18
24 20 16
24 21 23
24 22 1
24 23 29
25 0 32
25 1 39
25 2 11
25 3 6
25 4 9
25 5 17
25 6 10
25 7 31
25 8 35
25 9 5
25 10 7
25 11 18
25 12 34
25 13 20
25 14 38
25 15 1
25 16 24
25 17 17
25 18 34
25 19 16
25 20 6
25 21 25
25 22 36
25 23 5
25 24 16
26 0 37
26 1 35
26 2 31
26 3 32
26 4 28
26 5 29
26 6 3
26 7 38
26 8 2
26 9 3
26 10 39
26 11 16
26 12 19
26 13 39
26 14 5
26 15 21
26 16 31
26 17 39
26 18 38
26 19 2
26 20 30
26 21 21
26 22 28
26 23 30
26 24 1
26 25 33
27 0 12
27 1 19
27 2 30
27 3 40
27 4 13
27 5 22
27 6 3
27 7 39
27 8 36
27 9 32
27 10 36
27 11 21
27 12 11
27 13 14
27 14 3
27 15 22
27 16 9
27 17 22
27 18 1
27 19 9
27 20 22
27 21 28
27 22 25
27 23 27
27 24 17
27 25 23
27 26 27
28 0 19
28 1 16
28 2 34
28 3 18
28 4 2
28 5 5
28 6 40
28 7 39
28 8 25
28 9 8
28 10 1
28 11 4
28 12 27
28 13 33
28 14 11
28 15 26
28 16 19
28 17 37
28 18 19
28 19 37
28 20 22
28 21 7
28 22 6
28 23 25
28 24 15
28 25 36
28 26 15
28 27 33
29 0 1
29 1 32
29 2 27
29 3 23
29 4 38
29 5 8
29 6 12
29 7 14
29 8 8
29 9 37
29 10 11
29 11 10
29 12 21
29 13 12
29 14 29
29 15 31
29 16 10
29 17 27
29 18 34
29 19 28
29 20 40
29 21 20
29 22 5
29 23 8
29 24 19
29 25 3
29 26 33
29 27 9
29 28 32
30 0 11
30 1 33
30 2 34
30 3 21
30 4 31
30 5 10
30 6 12
30 7 35
30 8 32
30 9 30
30 10 18
30 11 5
30 12 20
30 13 39
30 14 8
30 15 37
30 16 7
30 17 33
30 18 17
30 19 6
30 20 4
30 21 28
30 22 23
30 23 31
30 24 30
30 25 12
30 26 29
30 27 9
30 28 22
30 29 11
31 0 27
31 1 34
31 2 19
31 3 22
31 4 2
31 5 14
31 6 11
31 7 31
31 8 26
31 9 35
31 10 37
31 11 40
31 12 30
31 13 21
31 14 25
31 15 31
31 16 21
31 17 21
31 18 26
31 19 24
31 20 17
31 21 3
31 22 26
31 23 20
31 24 39
31 25 24
31 26 9
31 27 3
31 28 35
31 29 2
31 30 38
32 0 7
32 1 4
32 2 31
32 3 12
32 4 3
32 5 34
32 6 15
32 7 33
32 8 6
32 9 33
32 10 6
32 11 28
32 12 37
32 13 4
32 14 38
32 15 24
32 16 13
32 17 13
32 18 15
32 19 17
32 20 12
32 21 19
32 22 30
32 23 9
32 24 15
32 25 7
32 26 12
32 27 20
32 28 24
32 29 3
32 30 22
32 31 34
33 0 2
33 1 10
33 2 22
33 3 4
33 4 38
33 5 14
33 6 37
33 7 1
33 8 24
33 9 30
33 10 17
33 11 5
33 12 15
33 13 23
33 14 29
33 15 25
33 16 3
33 17 26
33 18 27
33 19 12
33 20 10
33 21 5
33 22 34
33 23 16
33 24 27
33 25 15
33 26 30
33 27 32
33 28 35
33 29 3
33 30 20
33 31 16
33 32 11
34 0 40
34 1 38
34 2 2
34 3 26
34 4 24
34 5 32
34 6 34
34 7 28
34 8 21
34 9 35
34 10 15
34 11 3
34 12 30
34 13 33
34 14 5
34 15 9
34 16 30
34 17 33
34 18 29
34 19 21
34 20 3
34 21 38
34 22 38
34 23 3
34 24 8
34 25 24
34 26 7
34 27 33
34 28 19
34 29 31
34 30 27
34 31 35
34 32 27
34 33 9
35 0 26
35 1 16
35 2 5
35 3 4
35 4 6
35 5 4
35 6 36
35 7 38
35 8 12
35 9 21
35 10 13
35 11 31
35 12 10
35 13 25
35 14 25
35 15 11
35 16 2
35 17 1
35 18 26
35 19 19
35 20 5
35 21 12
35 22 1
35 23 14
35 24 2
35 25 2
35 26 4
35 27 10
35 28 10
35 29 20
35 30 19
35 31 8
35 32 3
35 33 7
35 34 7
36 0 7
36 1 1
36 2 23
36 3 20
36 4 14
36 5 31
36 6 37
36 7 13
36 8 21
36 9 10
36 10 27
36 11 13
36 12 17
36 13 5
36 14 12
36 15 10
36 16 17
36 17 8
36 18 6
36 19 19
36 20 6
36 21 26
36 22 31
36 23 14
36 24 31
36 25 16
36 26 11
36 27 37
36 28 3
36 29 24
36 30 24
36 31 12
36 32 20
36 33 6
36 34 37
36 35 18
37 0 35
37 1 5
37 2 2
37 3 27
37 4 20
37 5 34
37 6 10
37 7 17
37 8 21
37 9 22
37 10 18
37 11 24
37 12 20
37 13 29
37 14 11
37 15 28
37 16 29
37 17 11
37 18 35
37 19 26
37 20 39
37 21 26
37 22 31
37 23 9
37 24 15
37 25 40
37 26 31
37 27 24
37 28 27
37 29 15
37 30 31
37 31 26
37 32 18
37 33 23
37 34 10
37 35 17
37 36 11
38 0 28
38 1 23
38 2 14
38 3 24
38 4 5
38 5 2
38 6 13
38 7 35
38 8 2
38 9 12
38 10 35
38 11 12
38 12 34
38 13 23
38 14 37
38 15 9
38 16 5
38 17 34
38 18 28
38 19 35
38 20 39
38 21 10
38 22 11
38 23 8
38 24 37
38 25 22
38 26 6
38 27 34
38 28 22
38 29 8
38 30 14
38 31 29
38 32 31
38 33 6
38 34 36
38 35 13
38 36 12
38 37 6
39 0 11
39 1 3
39 2 28
39 3 21
39 4 26
39 5 20
39 6 9
39 7 20
39 8 33
39 9 20
39 10 40
39 11 26
39 12 7
39 13 16
39 14 23
39 15 37
39 16 36
39 17 16
39 18 38
39 19 17
39 20 27
39 21 31
39 22 8
39 23 37
39 24 9
39 25 31
39 26 30
39 27 26
39 28 23
39 29 40
39 30 20
39 31 38
39 32 36
39 33 1
39 34 31
39 35 35
39 36 16
39 37 11
39 38 26
40 0 22
40 1 14
40 2 16
40 3 33
40 4 15
40 5 16
40 6 35
40 7 19
40 8 36
40 9 39
40 10 18
40 11 32
40 12 5
40 13 39
40 14 25
40 15 29
40 16 27
40 17 11
40 18 12
40 19 17
40 20 34
40 21 38
40 22 14
40 23 24
40 24 39
40 25 30
40 26 34
40 27 12
40 28 35
40 29 31
40 30 31
40 31 5
40 32 32
40 33 3
40 34 36
40 35 40
40 36 12
40 37 17
40 38 6
40 39 25
41 0 21
41 1 6
41 2 8
41 3 24
41 4 38
41 5 6
41 6 20
41 7 32
41 8 33
41 9 23
41 10 5
41 11 7
41 12 21
41 13 6
41 14 23
41 15 14
41 16 32
41 17 32
41 18 32
41 19 30
41 20 22
41 21 2
41 22 10
41 23 36
41 24 16
41 25 26
41 26 15
41 27 7
41 28 27
41 29 2
41 30 36
41 31 14
41 32 4
41 33 33
41 34 40
41 35 20
41 36 23
41 37 9
41 38 3
41 39 1
41 40 31
42 0 19
42 1 36
42 2 11
42 3 12
42 4 12
42 5 3
42 6 28
42 7 40
42 8 35
42 9 5
42 10 14
42 11 10
42 12 21
42 13 40
42 14 29
42 15 20
42 16 9
42 17 18
42 18 25
42 19 22
42 20 10
42 21 23
42 22 3
42 23 38
42 24 16
42 25 30
42 26 6
42 27 1
42 28 17
42 29 20
42 30 9
42 31 35
42 32 38
42 33 39
42 34 14
42 35 27
42 36 30
42 37 22
42 38 9
42 39 4
42 40 4
42 41 4
43 0 23
43 1 26
43 2 37
43 3 10
43 4 16
43 5 6
43 6 30
43 7 36
43 8 28
43 9 30
43 10 19
43 11 11
43 12 18
43 13 11
43 14 30
43 15 31
43 16 5
43 17 22
43 18 24
43 19 11
43 20 40
43 21 14
43 22 4
43 23 12
43 24 31
43 25 31
43 26 27
43 27 30
43 28 23
43 29 16
43 30 9
43 31 31
43 32 16
43 33 21
43 34 35
43 35 3
43 36 6
43 37 6
43 38 21
43 39 24
43 40 7
43 41 31
43 42 6
44 0 25
44 1 39
44 2 40
44 3 27
44 4 26
44 5 13
44 6 21
44 7 27
44 8 9
44 9 2
44 10 4
44 11 18
44 12 14
44 13 4
44 14 16
44 15 16
44 16 17
44 17 37
44 18 39
44 19 5
44 20 39
44 21 37
44 22 34
44 23 7
44 24 9
44 25 39
44 26 2
44 27 18
44 28 16
44 29 27
44 30 27
44 31 4
44 32 32
44 33 10
44 34 31
44 35 8
44 36 6
44 37 12
44 38 17
44 39 40
44 40 16
44 41 22
44 42 32
44 43 18
45 0 4
45 1 18
45 2 35
45 3 31
45 4 12
45 5 7
45 6 22
45 7 6
45 8 9
45 9 25
45 10 21
45 11 16
45 12 8
45 13 4
45 14 1
45 15 22
45 16 2
45 17 6
45 18 39
45 19 33
45 20 11
45 21 18
45 22 34
45 23 3
45 24 9
45 25 30
45 26 24
45 27 35
45 28 34
45 29 24
45 30 22
45 31 32
45 32 32
45 33 35
45 34 38
45 35 25
45 36 37
45 37 25
45 38 13
45 39 20
45 40 22
45 41 30
45 42 15
45 43 3
45 44 40
46 0 16
46 1 29
46 2 14
46 3 2
46 4 8
46 5 25
46 6 3
46 7 34
46 8 30
46 9 37
46 10 5
46 11 31
46 12 37
46 13 12
46 14 30
46 15 31
46 16 26
46 17 2
46 18 37
46 19 39
46 20 34
46 21 27
46 22 7
46 23 23
46 24 8
46 25 1
46 26 30
46 27 21
46 28 34
46 29 3
46 30 10
46 31 3
46 32 28
46 33 10
46 34 11
46 35 27
46 36 18
46 37 33
46 38 5
46 39 20
46 40 29
46 41 5
46 42 26
46 43 28
46 44 39
46 45 24
47 0 34
47 1 7
47 2 35
47 3 13
47 4 13
47 5 11
47 6 24
47 7 15
47 8 16
47 9 5
47 10 36
47 11 26
47 12 3
47 13 1
47 14 3
47 15 39
47 16 34
47 17 12
47 18 15
47 19 2
47 20 2
47 21 30
47 22 4
47 23 38
47 24 10
47 25 13
47 26 27
47 27 37
47 28 37
47 29 27
47 30 15
47 31 4
47 32 17
47 33 36
47 34 24
47 35 26
47 36 2
47 37 18
47 38 23
47 39 20
47 40 18
47 41 3
47 42 10
47 43 21
47 44 34
47 45 11
47 46 25
48 0 3
48 1 4
48 2 30
48 3 22
48 4 30
48 5 4
48 6 25
48 7 7
48 8 21
48 9 5
48 10 14
48 11 5
48 12 37
48 13 19
48 14 5
48 15 17
48 16 5
48 17 10
48 18 23
48 19 26
48 20 22
48 21 2
48 22 8
48 23 31
48 24 24
48 25 3
48 26 12
48 27 25
48 28 5
48 29 37
48 30 26
48 31 4
48 32 34
48 33 37
48 34 30
48 35 26
48 36 8
48 37 39
48 38 2
48 39 2
48 40 3
48 41 7
48 42 23
48 43 9
48 44 37
48 45 23
48 46 6
48 47 19
49 0 16
49 1 38
49 2 16
49 3 35
49 4 25
49 5 22
49 6 4
49 7 9
49 8 5
49 9 2
49 10 4
49 11 29
49 12 40
49 13 3
49 14 27
49 15 3
49 16 11
49 17 11
49 18 26
49 19 29
49 20 11
49 21 29
49 22 6
49 23 30
49 24 39
49 25 3
49 26 33
49 27 4
49 28 28
49 29 25
49 30 15
49 31 20
49 32 3
49 33 20
49 34 6
49 35 17
49 36 18
49 37 23
49 38 20
49 39 15
49 40 17
49 41 21
49 42 40
49 43 40
49 44 27
49 45 17
49 46 33
49 47 9
49 48 27
50 0 28
50 1 34
50 2 37
50 3 29
50 4 16
50 5 9
50 6 19
50 7 20
50 8 3
50 9 23
50 10 11
50 11 40
50 12 21
50 13 35
50 14 16
50 15 23
50 16 22
50 17 2
50 18 8
50 19 23
50 20 9
50 21 17
50 22 19
50 23 24
50 24 18
50 25 30
50 26 38
50 27 21
50 28 32
50 29 20
50 30 1
50 31 22
50 32 23
50 33 25
50 34 32
50 35 12
50 36 12
50 37 31
50 38 35
50 39 25
50 40 18
50 41 39
50 42 6
50 43 15
50 44 7
50 45 5
50 46 18
50 47 20
50 48 34
50 49 26
51 0 14
51 1 11
51 2 6
51 3 20
51 4 40
51 5 20
51 6 1
51 7 4
51 8 25
51 9 32
51 10 7
51 11 39
51 12 39
51 13 25
51 14 27
51 15 2
51 16 33
51 17 16
51 18 21
51 19 12
51 20 23
51 21 37
51 22 35
51 23 29
51 24 11
51 25 6
51 26 30
51 27 34
51 28 30
51 29 26
51 30 30
51 31 31
51 32 21
51 33 26
51 34 39
51 35 34
51 36 2
51 37 18
51 38 1
51 39 35
51 40 1
51 41 14
51 42 5
51 43 5
51 44 1
51 45 26
51 46 17
51 47 37
51 48 30
51 49 7
51 50 12
52 0 11
52 1 21
52 2 23
52 3 34
52 4 37
52 5 36
52 6 12
52 7 8
52 8 38
52 9 20
52 10 30
52 11 17
52 12 16
52 13 16
52 14 14
52 15 26
52 16 1
52 17 29
52 18 14
52 19 11
52 20 28
52 21 18
52 22 30
52 23 3
52 24 24
52 25 1
52 26 15
52 27 18
52 28 25
52 29 40
52 30 12
52 31 17
52 32 39
52 33 15
52 34 5
52 35 6
52 36 40
52 37 11
52 38 13
52 39 27
52 40 16
52 41 22
52 42 20
52 43 17
52 44 24
52 45 40
52 46 23
52 47 35
52 48 32
52 49 25
52 50 19
52 51 2
53 0 4
53 1 38
53 2 38
53 3 36
53 4 20
53 5 6
53 6 15
53 7 32
53 8 6
53 9 5
53 10 1
53 11 25
53 12 21
53 13 39
53 14 21
53 15 6
53 16 28
53 17 4
53 18 9
53 19 33
53 20 8
53 21 28
53 22 16
53 23 3
53 24 17
53 25 7
53 26 40
53 27 23
53 28 12
53 29 7
53 30 15
53 31 18
53 32 8
53 33 29
53 34 16
53 35 9
53 36 15
53 37 10
53 38 3
53 39 24
53 40 33
53 41 4
53 42 35
53 43 1
53 44 26
53 45 27
53 46 38
53 47 11
53 48 35
53 49 36
53 50 14
53 51 13
53 52 8
54 0 8
54 1 27
54 2 31
54 3 32
54 4 40
54 5 25
54 6 6
54 7 27
54 8 1
54 9 35
54 10 33
54 11 32
54 12 22
54 13 36
54 14 32
54 15 5
54 16 11
54 17 22
54 18 10
54 19 14
54 20 34
54 21 31
54 22 21
54 23 27
54 24 31
54 25 31
54 26 14
54 27 19
54 28 21
54 29 14
54 30 6
54 31 3
54 32 3
54 33 9
54 34 21
54 35 16
54 36 4
54 37 27
54 38 2
54 39 4
54 40 20
54 41 33
54 42 7
54 43 8
54 44 4
54 45 16
54 46 40
54 47 38
54 48 27
54 49 17
54 50 35
54 51 28
54 52 26
54 53 32
55 0 7
55 1 18
55 2 1
55 3 17
55 4 7
55 5 15
55 6 17
55 7 2
55 8 5
55 9 9
55 10 23
55 11 18
55 12 12
55 13 27
55 14 6
55 15 23
55 16 4
55 17 30
55 18 1
55 19 8
55 20 22
55 21 6
55 22 19
55 23 1
55 24 7
55 25 5
55 26 34
55 27 35
55 28 34
55 29 38
55 30 17
55 31 7
55 32 25
55 33 4
55 34 32
55 35 11
55 36 28
55 37 14
55 38 5
55 39 12
55 40 9
55 41 26
55 42 23
55 43 11
55 44 14
55 45 25
55 46 9
55 47 32
55 48 35
55 49 23
55 50 17
55 51 32
55 52 19
55 53 27
55 54 21
56 0 38
56 1 2
56 2 4
56 3 19
56 4 20
56 5 2
56 6 10
56 7 10
56 8 3
56 9 22
56 10 7
56 11 32
56 12 26
56 13 24
56 14 39
56 15 27
56 16 3
56 17 2
56 18 34
56 19 37
56 20 37
56 21 31
56 22 30
56 23 11
56 24 32
56 25 8
56 26 13
56 27 18
56 28 15
56 29 14
56 30 3
56 31 11
56 32 11
56 33 7
56 34 9
56 35 40
56 36 6
56 37 12
56 38 30
56 39 29
56 40 29
56 41 39
56 42 14
56 43 7
56 44 23
56 45 23
56 46 20
56 47 37
56 48 5
56 49 8
56 50 31
56 51 39
56 52 35
56 53 34
56 54 1
56 55 16
57 0 36
57 1 17
57 2 15
57 3 6
57 4 12
57 5 34
57 6 32
57 7 14
57 8 40
57 9 11
57 10 29
57 11 39
57 12 38
57 13 36
57 14 16
57 15 17
57 16 2
57 17 30
57 18 16
57 19 6
57 20 34
57 21 36
57 22 31
57 23 3
57 24 4
57 25 25
57 26 27
57 27 36
57 28 33
57 29 15
57 30 27
57 31 17
57 32 9
57 33 40
57 34 26
57 35 8
57 36 28
57 37 13
57 38 12
57 39 13
57 40 33
57 41 27
57 42 26
57 43 21
57 44 5
57 45 34
57 46 39
57 47 7
57 48 31
57 49 38
57 50 7
57 51 12
57 52 33
57 53 25
57 54 4
57 55 1
57 56 12
58 0 7
58 1 5
58 2 3
58 3 21
58 4 8
58 5 9
58 6 7
58 7 22
58 8 30
58 9 24
58 10 18
58 11 7
58 12 9
58 13 1
58 14 9
58 15 6
58 16 31
58 17 29
58 18 28
58 19 37
58 20 16
58 21 37
58 22 26
58 23 12
58 24 9
58 25 14
58 26 1
58 27 15
58 28 6
58 29 11
58 30 28
58 31 27
58 32 33
58 33 30
58 34 22
58 35 28
58 36 22
58 37 10
58 38 36
58 39 12
58 40 11
58 41 38
58 42 8
58 43 33
58 44 21
58 45 11
58 46 33
58 47 39
58 48 13
58 49 11
58 50 36
58 51 21
58 52 13
58 53 10
58 54 25
58 55 19
58 56 13
58 57 21
59 0 35
59 1 32
59 2 24
59 3 14
59 4 25
59 5 28
59 6 10
59 7 11
59 8 19
59 9 40
59 10 17
59 11 17
59 12 31
59 13 15
59 14 18
59 15 31
59 16 26
59 17 4
59 18 40
59 19 4
59 20 7
59 21 29
59 22 39
59 23 6
59 24 11
59 25 39
59 26 19
59 27 19
59 28 18
59 29 29
59 30 14
59 31 39
59 32 5
59 33 28
59 34 6
59 35 25
59 36 8
59 37 11
59 38 5
59 39 15
59 40 16
59 41 33
59 42 2
59 43 15
59 44 8
59 45 3
59 46 32
59 47 14
59 48 15
59 49 30
59 50 35
59 51 10
59 52 35
59 53 9
59 54 22
59 55 23
59 56 8
59 57 2
59 58 3
60 0 22
60 1 17
60 2 30
60 3 11
60 4 25
60 5 37
60 6 36
60 7 20
60 8 19
60 9 4
60 10 26
60 11 23
60 12 23
60 13 31
60 14 11
60 15 11
60 16 22
60 17 9
60 18 1
60 19 34
60 20 39
60 21 24
60 22 27
60 23 39
60 24 1
60 25 24
60 26 26
60 27 21
60 28 4
60 29 23
60 30 9
60 31 7
60 32 27
60 33 10
60 34 23
60 35 13
60 36 38
60 37 38
60 38 14
60 39 13
60 40 15
60 41 31
60 42 14
60 43 22
60 44 9
60 45 13
60 46 6
60 47 39
60 48 6
60 49 1
60 50 4
60 51 24
60 52 39
60 53 29
60 54 35
60 55 13
60 56 10
60 57 15
60 58 11
60 59 19
61 0 21
61 1 10
61 2 19
61 3 2
61 4 12
61 5 16
61 6 14
61 7 14
61 8 34
61 9 27
61 10 4
61 11 22
61 12 28
61 13 31
61 14 38
61 15 10
61 16 10
61 17 18
61 18 26
61 19 16
61 20 4
61 21 9
61 22 10
61 23 35
61 24 25
61 25 26
61 26 13
61 27 17
61 28 4
61 29 7
61 30 23
61 31 14
61 32 31
61 33 22
61 34 10
61 35 24
61 36 39
61 37 20
61 38 14
61 39 10
61 40 25
61 41 33
61 42 2
61 43 34
61 44 26
61 45 11
61 46 8
61 47 22
61 48 11
61 49 25
61 50 18
61 51 29
61 52 33
61 53 14
61 54 19
61 55 31
61 56 37
61 57 11
61 58 37
61 59 29
61 60 2
62 0 5
62 1 39
62 2 40
62 3 31
62 4 19
62 5 18
62 6 31
62 7 12
62 8 32
62 9 32
62 10 18
62 11 32
62 12 29
62 13 2
62 14 2
62 15 11
62 16 10
62 17 30
62 18 16
62 19 13
62 20 35
62 21 22
62 22 10
62 23 11
62 24 9
62 25 31
62 26 2
62 27 26
62 28 30
62 29 15
62 30 1
62 31 33
62 32 40
62 33 34
62 34 23
62 35 18
62 36 13
62 37 6
62 38 37
62 39 30
62 40 22
62 41 34
62 42 5
62 43 3
62 44 33
62 45 24
62 46 22
62 47 6
62 48 5
62 49 5
62 50 8
62 51 35
62 52 2
62 53 7
62 54 40
62 55 30
62 56 14
62 57 37
62 58 21
62 59 8
62 60 2
62 61 2
63 0 35
63 1 9
63 2 27
63 3 14
63 4 34
63 5 21
63 6 39
63 7 27
63 8 13
63 9 28
63 10 17
63 11 18
63 12 34
63 13 10
63 14 37
63 15 38
63 16 25
63 17 20
63 18 3
63 19 26
63 20 8
63 21 27
63 22 14
63 23 29
63 24 2
63 25 35
63 26 15
63 27 19
63 28 21
63 29 18
63 30 12
63 31 38
63 32 38
63 33 2
63 34 19
63 35 17
63 36 26
63 37 19
63 38 11
63 39 18
63 40 17
63 41 10
63 42 33
63 43 9
63 44 33
63 45 4
63 46 31
63 47 35
63 48 39
63 49 39
63 50 16
63 51 13
63 52 39
63 53 27
63 54 27
63 55 23
63 56 35
63 57 19
63 58 17
63 59 26
63 60 10
63 61 32
63 62 7
64 0 26
64 1 21
64 2 3
64 3 22
64 4 24
64 5 15
64 6 20
64 7 20
64 8 35
64 9 14
64 10 6
64 11 19
64 12 17
64 13 12
64 14 10
64 15 15
64 16 26
64 17 1
64 18 27
64 19 39
64 20 28
64 21 30
64 22 39
64 23 3
64 24 5
64 25 35
64 26 16
64 27 23
64 28 8
64 29 6
64 30 36
64 31 14
64 32 5
64 33 32
64 34 34
64 35 15
64 36 40
64 37 9
64 38 12
64 39 32
64 40 9
64 41 14
64 42 26
64 43 26
64 44 35
64 45 2
64 46 6
64 47 16
64 48 37
64 49 15
64 50 35
64 51 28
64 52 36
64 53 36
64 54 27
64 55 4
64 56 23
64 57 27
64 58 25
64 59 8
64 60 16
64 61 18
64 62 27
64 63 32
65 0 26
65 1 14
65 2 28
65 3 2
65 4 6
65 5 31
65 6 4
65 7 20
65 8 27
65 9 3
65 10 23
65 11 28
65 12 29
65 13 31
65 14 39
65 15 21
65 16 26
65 17 8
65 18 4
65 19 31
65 20 15
65 21 9
65 22 31
65 23 8
65 24 38
65 25 25
65 26 37
65 27 17
65 28 35
65 29 14
65 30 10
65 31 14
65 32 30
65 33 22
65 34 24
65 35 32
65 36 37
65 37 10
65 38 19
65 39 23
65 40 1
65 41 4
65 42 40
65 43 14
65 44 21
65 45 18
65 46 19
65 47 3
65 48 37
65 49 26
65 50 40
65 51 10
65 52 36
65 53 19
65 54 8
65 55 9
65 56 36
65 57 4
65 58 1
65 59 20
65 60 22
65 61 28
65 62 30
65 63 2
65 64 7
66 0 39
66 1 40
66 2 13
66 3 20
66 4 40
66 5 10
66 6 2
66 7 30
66 8 11
66 9 15
66 10 10
66 11 2
66 12 31
66 13 36
66 14 3
66 15 39
66 16 11
66 17 6
66 18 14
66 19 21
66 20 30
66 21 19
66 22 29
66 23 27
66 24 40
66 25 10
66 26 10
66 27 20
66 28 7
66 29 12
66 30 17
66 31 25
66 32 29
66 33 36
66 34 9
66 35 8
66 36 36
66 37 22
66 38 15
66 39 34
66 40 6
66 41 11
66 42 9
66 43 8
66 44 21
66 45 39
66 46 1
66 47 3
66 48 16
66 49 3
66 50 36
66 51 13
66 52 31
66 53 36
66 54 17
66 55 39
66 56 5
66 57 25
66 58 16
66 59 38
66 60 33
66 61 35
66 62 5
66 63 33
66 64 38
66 65 23
67 0 16
67 1 18
67 2 29
67 3 20
67 4 35
67 5 30
67 6 13
67 7 14
67 8 32
67 9 38
67 10 3
67 11 26
67 12 1
67 13 13
67 14 23
67 15 6
67 16 29
67 17 19
67 18 19
67 19 9
67 20 24
67 21 37
67 22 22
67 23 29
67 24 4
67 25 3
67 26 14
67 27 11
67 28 6
67 29 14
67 30 9
67 31 26
67 32 18
67 33 23
67 34 24
67 35 10
67 36 5
67 37 10
67 38 38
67 39 11
67 40 22
67 41 9
67 42 27
67 43 9
67 44 12
67 45 30
67 46 39
67 47 16
67 48 3
67 49 3
67 50 12
67 51 31
67 52 20
67 53 38
67 54 2
67 55 22
67 56 8
67 57 1
67 58 26
67 59 36
67 60 12
67 61 22
67 62 33
67 63 35
67 64 5
67 65 35
67 66 15
68 0 37
68 1 16
68 2 14
68 3 4
68 4 25
68 5 19
68 6 32
68 7 37
68 8 2
68 9 26
68 10 1
68 11 27
68 12 21
68 13 1
68 14 40
68 15 24
68 16 4
68 17 28
68 18 26
68 19 23
68 20 18
68 21 31
68 22 29
68 23 6
68 24 32
68 25 25
68 26 17
68 27 15
68 28 2
68 29 26
68 30 15
68 31 2
68 32 15
68 33 39
68 34 9
68 35 5
68 36 30
68 37 21
68 38 10
68 39 6
68 40 23
68 41 28
68 42 19
68 43 13
68 44 29
68 45 33
68 46 38
68 47 3
68 48 6
68 49 24
68 50 31
68 51 21
68 52 1
68 53 17
68 54 32
68 55 8
68 56 22
68 57 33
68 58 24
68 59 2
68 60 1
68 61 8
68 62 35
68 63 7
68 64 9
68 65 28
68 66 5
68 67 4
69 0 31
69 1 35
69 2 31
69 3 34
69 4 7
69 5 19
69 6 39
69 7 11
69 8 26
69 9 16
69 10 9
69 11 9
69 12 38
69 13 30
69 14 40
69 15 10
69 16 3
69 17 31
69 18 22
69 19 22
69 20 3
69 21 23
69 22 7
69 23 2
69 24 20
69 25 12
69 26 28
69 27 8
69 28 29
69 29 8
69 30 10
69 31 11
69 32 15
69 33 17
69 34 7
69 35 3
69 36 3
69 37 30
69 38 33
69 39 7
69 40 12
69 41 29
69 42 29
69 43 27
69 44 27
69 45 13
69 46 2
69 47 19
69 48 18
69 49 32
69 50 32
69 51 26
69 52 24
69 53 1
69 54 26
69 55 40
69 56 1
69 57 8
69 58 29
69 59 1
69 60 27
69 61 19
69 62 28
69 63 16
69 64 31
69 65 4
69 66 31
69 67 33
69 68 11
